qbf_easy_train/easy_2432_SAT.qdimacs
p cnf 18 37
a 2 7 15 0
e 1 3 4 5 6 8 9 10 11 12 13 14 16 17 18 0
1 -2 -3 0
-1 2 -3 0
1 2 3 0
-1 -2 3 0
3 -4 -5 0
-3 4 -5 0
3 4 5 0
-3 -4 5 0
-8 -6 0
-8 7 0
6 -7 8 0
-9 -5 0
-9 -8 0
5 8 9 0
11 4 0
11 -10 0
-4 10 -11 0
13 2 0
13 12 0
-2 -12 -13 0
-14 11 0
-14 -13 0
-11 13 14 0
-15 -9 0
-15 -14 0
9 14 15 0
-16 10 -17 0
16 -10 -17 0
-16 -10 17 0
16 10 17 0
18 15 0
18 -17 0
-15 17 -18 0
-15 -13 11 12 -2 -7 0
5 -17 -8 -7 16 -2 0
12 -6 -18 9 -16 3 0
18 0
