sat_easy_train/easy_2432_SAT.dimacs
p cnf 92 293
3 1 0
3 -2 0
-1 2 -3 0
-6 -4 0
-6 -5 0
4 5 6 0
8 6 0
8 -7 0
-6 7 -8 0
-11 9 0
-11 10 0
-9 -10 11 0
12 8 0
12 -11 0
-8 11 -12 0
14 13 0
14 1 0
-13 -1 -14 0
12 14 -15 0
-12 -14 -15 0
12 -14 15 0
-12 14 15 0
-3 -15 -16 0
3 15 -16 0
-3 15 16 0
3 -15 16 0
17 -10 0
17 11 0
10 -11 -17 0
-17 -18 -19 0
17 18 -19 0
-17 18 19 0
17 -18 19 0
-11 -1 -20 0
11 1 -20 0
-11 1 20 0
11 -1 20 0
-11 -21 -22 0
11 21 -22 0
-11 21 22 0
11 -21 22 0
-23 -20 0
-23 22 0
20 -22 23 0
24 19 0
24 -23 0
-19 23 -24 0
25 16 0
25 24 0
-16 -24 -25 0
-27 -1 0
-27 -26 0
1 26 27 0
28 -27 0
28 -26 0
27 26 -28 0
30 29 0
30 -21 0
-29 21 -30 0
5 30 -31 0
-5 -30 -31 0
5 -30 31 0
-5 30 31 0
32 -31 0
32 11 0
31 -11 -32 0
33 -28 0
33 -32 0
28 32 -33 0
-34 6 0
-34 1 0
-6 -1 34 0
9 5 -35 0
-9 -5 -35 0
9 -5 35 0
-9 5 35 0
34 35 -36 0
-34 -35 -36 0
34 -35 36 0
-34 35 36 0
33 36 -37 0
-33 -36 -37 0
33 -36 37 0
-33 36 37 0
-29 -21 -38 0
29 21 -38 0
-29 21 38 0
29 -21 38 0
39 -7 0
39 1 0
7 -1 -39 0
-38 -39 -40 0
38 39 -40 0
-38 39 40 0
38 -39 40 0
8 -4 -41 0
-8 4 -41 0
8 4 41 0
-8 -4 41 0
42 -40 0
42 41 0
40 -41 -42 0
-44 -29 0
-44 43 0
29 -43 44 0
34 44 -45 0
-34 -44 -45 0
34 -44 45 0
-34 44 45 0
-46 42 0
-46 -45 0
-42 45 46 0
47 34 0
47 -18 0
-34 18 -47 0
48 46 0
48 -47 0
-46 47 -48 0
49 -41 0
49 44 0
41 -44 -49 0
-50 49 0
-50 9 0
-49 -9 50 0
-51 50 0
-51 9 0
-50 -9 51 0
-52 -48 0
-52 51 0
48 -51 52 0
53 -37 0
53 -52 0
37 52 -53 0
55 -44 0
55 -54 0
44 54 -55 0
-56 41 0
-56 -50 0
-41 50 56 0
55 56 -57 0
-55 -56 -57 0
55 -56 57 0
-55 56 57 0
58 53 0
58 57 0
-53 -57 -58 0
-59 25 0
-59 -58 0
-25 58 59 0
60 -29 0
60 27 0
29 -27 -60 0
14 60 -61 0
-14 -60 -61 0
14 -60 61 0
-14 60 61 0
-62 5 0
-62 -43 0
-5 43 62 0
-63 -61 0
-63 -62 0
61 62 63 0
7 -54 -64 0
-7 54 -64 0
7 54 64 0
-7 -54 64 0
64 -26 -65 0
-64 26 -65 0
64 26 65 0
-64 -26 65 0
-18 32 -66 0
18 -32 -66 0
-18 -32 66 0
18 32 66 0
65 -66 -67 0
-65 66 -67 0
65 66 67 0
-65 -66 67 0
26 35 -68 0
-26 -35 -68 0
26 -35 68 0
-26 35 68 0
-69 -67 0
-69 68 0
67 -68 69 0
-70 -63 0
-70 69 0
63 -69 70 0
71 -59 0
71 -70 0
59 70 -71 0
-73 72 0
-73 -21 0
-72 21 73 0
-74 71 0
-74 73 0
-71 -73 74 0
-75 -64 0
-75 -11 0
64 11 75 0
-76 9 0
-76 2 0
-9 -2 76 0
75 -76 -77 0
-75 76 -77 0
75 76 77 0
-75 -76 77 0
78 77 0
78 -4 0
-77 4 -78 0
41 6 -79 0
-41 -6 -79 0
41 -6 79 0
-41 6 79 0
-80 -78 0
-80 -79 0
78 79 80 0
64 -30 -81 0
-64 30 -81 0
64 30 81 0
-64 -30 81 0
29 -81 -82 0
-29 81 -82 0
29 81 82 0
-29 -81 82 0
83 31 0
83 82 0
-31 -82 -83 0
80 83 -84 0
-80 -83 -84 0
80 -83 84 0
-80 83 84 0
86 35 0
86 14 0
-35 -14 -86 0
-87 -41 0
-87 -86 0
41 86 87 0
-88 -85 0
-88 87 0
85 -87 88 0
-89 -86 0
-89 -44 0
86 44 89 0
-90 -88 0
-90 89 0
88 -89 90 0
84 -90 -91 0
-84 90 -91 0
84 90 91 0
-84 -90 91 0
-92 74 0
-92 -91 0
-74 91 92 0
-72 -41 50 0
-73 66 -36 -75 0
50 -88 73 0
37 25 59 0
64 -50 18 27 -7 0
35 44 -18 19 -5 0
-71 13 63 -2 -15 0
54 -81 89 0
80 12 -42 0
42 -33 -70 -54 0
51 10 -20 -13 0
-17 -15 -67 0
-63 -16 74 -57 0
-3 -36 89 -86 -21 -8 0
57 28 0
51 24 0
53 -27 64 0
-29 -89 57 25 77 8 0
84 -72 92 0
-38 55 -48 0
36 27 83 -18 66 48 0
-9 7 -3 0
8 7 42 0
-79 71 -22 0
30 -6 67 -44 0
31 68 0
-18 26 0
71 56 85 31 0
-86 -76 0
20 57 -35 -91 -6 0
-88 8 48 64 0
18 -35 -31 20 -22 79 0
41 21 34 36 33 31 0
21 40 57 -73 77 9 0
-35 -14 41 -42 0
87 -63 45 50 -71 75 0
62 -23 76 0
61 50 4 -15 30 0
92 0
